c 
c G(n,p) graph
c graph gen seed     : 58119
c number of vertices : 70
c max number of edges: 2415
c edge probability   : 0.200000
c data structure     : sparse
c
c           Graph Stats
c number of vertices  : 70
c nonisolated vertices: 70
c number of edges     : 483
c edge density        : 0.200000
c max degree          : 24
c avg degree          : 13.80
c min degree          : 5
p col 70 483
e 1 69
e 1 65
e 1 61
e 1 58
e 1 56
e 1 51
e 1 44
e 1 40
e 1 36
e 1 28
e 1 25
e 1 8
e 1 6
e 2 69
e 2 67
e 2 66
e 2 62
e 2 40
e 2 39
e 2 38
e 2 35
e 2 34
e 2 16
e 2 15
e 2 13
e 3 62
e 3 61
e 3 56
e 3 55
e 3 54
e 3 47
e 3 38
e 3 36
e 3 34
e 3 32
e 3 29
e 3 21
e 3 19
e 3 18
e 3 16
e 3 10
e 3 6
e 4 62
e 4 57
e 4 51
e 4 50
e 4 44
e 4 43
e 4 41
e 4 39
e 4 38
e 4 37
e 4 30
e 4 27
e 4 23
e 4 19
e 4 17
e 5 52
e 5 50
e 5 46
e 5 40
e 5 37
e 5 31
e 5 23
e 5 22
e 5 13
e 5 11
e 5 9
e 5 7
e 6 69
e 6 68
e 6 66
e 6 64
e 6 62
e 6 52
e 6 50
e 6 48
e 6 47
e 6 46
e 6 34
e 6 29
e 6 26
e 6 19
e 6 17
e 6 11
e 7 68
e 7 67
e 7 63
e 7 62
e 7 60
e 7 57
e 7 41
e 7 34
e 7 29
e 7 26
e 7 25
e 7 20
e 7 18
e 8 69
e 8 62
e 8 57
e 8 54
e 8 46
e 8 45
e 8 44
e 8 43
e 8 35
e 8 34
e 8 33
e 8 14
e 9 70
e 9 61
e 9 56
e 9 55
e 9 51
e 9 42
e 9 37
e 9 31
e 9 28
e 9 27
e 9 19
e 9 17
e 9 10
e 10 67
e 10 62
e 10 57
e 10 40
e 10 39
e 10 31
e 10 24
e 10 19
e 11 69
e 11 65
e 11 55
e 11 54
e 11 48
e 11 47
e 11 44
e 11 38
e 11 28
e 11 17
e 12 64
e 12 61
e 12 58
e 12 51
e 12 47
e 12 46
e 12 40
e 12 36
e 12 35
e 12 27
e 13 69
e 13 63
e 13 61
e 13 60
e 13 54
e 13 53
e 13 41
e 13 25
e 13 19
e 13 17
e 13 16
e 14 63
e 14 57
e 14 56
e 14 54
e 14 41
e 14 33
e 14 28
e 14 16
e 15 70
e 15 67
e 15 65
e 15 61
e 15 55
e 15 46
e 15 43
e 15 42
e 15 38
e 15 37
e 15 28
e 15 27
e 15 19
e 16 68
e 16 62
e 16 57
e 16 55
e 16 53
e 16 48
e 16 44
e 16 43
e 16 42
e 16 34
e 16 28
e 16 26
e 16 25
e 16 20
e 17 62
e 17 57
e 17 48
e 17 46
e 17 44
e 17 39
e 17 30
e 17 27
e 17 19
e 18 66
e 18 65
e 18 55
e 18 49
e 18 45
e 18 39
e 18 37
e 18 28
e 18 23
e 19 70
e 19 69
e 19 67
e 19 57
e 19 50
e 19 44
e 19 41
e 19 34
e 19 31
e 19 28
e 19 27
e 19 26
e 19 21
e 20 70
e 20 54
e 20 46
e 20 44
e 20 41
e 20 39
e 20 37
e 20 34
e 20 30
e 20 26
e 21 70
e 21 69
e 21 66
e 21 61
e 21 60
e 21 59
e 21 56
e 21 54
e 21 51
e 21 27
e 21 25
e 22 70
e 22 57
e 22 54
e 22 36
e 23 52
e 23 35
e 23 34
e 23 32
e 23 29
e 23 28
e 23 27
e 23 25
e 24 70
e 24 68
e 24 62
e 24 48
e 24 45
e 24 43
e 24 41
e 24 39
e 24 32
e 24 27
e 25 68
e 25 67
e 25 51
e 25 49
e 25 44
e 25 43
e 25 41
e 25 36
e 25 33
e 25 28
e 25 26
e 26 62
e 26 54
e 26 38
e 26 37
e 27 61
e 27 58
e 27 57
e 27 56
e 27 47
e 28 66
e 28 64
e 28 46
e 28 45
e 28 38
e 28 36
e 29 70
e 29 68
e 29 64
e 29 63
e 29 62
e 29 61
e 29 58
e 29 54
e 29 45
e 29 40
e 29 37
e 30 55
e 30 54
e 30 53
e 30 40
e 30 35
e 30 32
e 30 31
e 31 65
e 31 64
e 31 58
e 31 57
e 31 56
e 31 52
e 31 51
e 31 45
e 31 39
e 32 70
e 32 65
e 32 62
e 32 60
e 32 55
e 32 51
e 32 47
e 32 40
e 33 63
e 33 60
e 33 59
e 33 57
e 33 52
e 33 42
e 33 37
e 33 35
e 34 70
e 34 67
e 34 64
e 34 60
e 34 56
e 34 50
e 34 42
e 34 39
e 34 38
e 35 66
e 35 63
e 35 61
e 35 58
e 35 48
e 35 46
e 35 45
e 35 44
e 35 39
e 35 37
e 36 70
e 36 63
e 36 54
e 36 52
e 36 48
e 37 67
e 37 58
e 37 54
e 37 53
e 37 49
e 37 48
e 37 38
e 38 62
e 38 55
e 38 52
e 38 45
e 38 42
e 38 41
e 39 64
e 39 58
e 39 56
e 39 54
e 39 53
e 39 50
e 39 41
e 40 70
e 40 69
e 40 65
e 40 63
e 40 59
e 40 53
e 40 51
e 40 42
e 41 63
e 41 59
e 41 51
e 41 44
e 41 42
e 42 67
e 42 62
e 42 57
e 42 56
e 43 65
e 43 64
e 43 59
e 43 56
e 43 55
e 43 52
e 43 49
e 43 46
e 44 65
e 44 60
e 44 58
e 45 67
e 45 66
e 45 62
e 45 58
e 45 53
e 45 52
e 46 66
e 46 61
e 46 58
e 46 52
e 47 63
e 47 59
e 47 56
e 47 55
e 48 69
e 48 68
e 48 62
e 48 54
e 48 52
e 48 51
e 49 69
e 49 66
e 49 65
e 49 64
e 49 63
e 49 54
e 49 53
e 50 63
e 50 62
e 50 59
e 50 54
e 50 53
e 52 68
e 52 58
e 52 53
e 53 70
e 53 62
e 54 67
e 54 64
e 54 59
e 55 70
e 55 69
e 55 65
e 55 63
e 55 60
e 56 65
e 56 63
e 56 62
e 57 68
e 58 68
e 58 62
e 58 60
e 59 64
e 59 63
e 60 66
e 61 68
e 61 66
e 61 62
e 62 68
e 62 67
e 63 66
e 64 70
e 64 67
e 65 70
e 65 69
e 65 66
e 66 70
e 66 69
e 66 68
e 66 67
e 69 70
